60873 47862
32021 37914
15550 30071
63116 35835
34153 15177
32040 40898
44507 25920
24080 64748
2473 58010
59853 52178
6469 17161
21977 44546
8949 47266
6996 42844
32386 51055
46860 59226
58387 21899
45793 12963
2001 48763
32769 31452
